data/lp_files/pEFS/33_0.lp
\ Model foo
\ LP format - for model browsing. Use MPS format to capture full model detail.
Minimize
  z
Subject To
 allocateEach[1]: x[1,1] + x[2,1] = 1
 allocateEach[2]: x[1,2] + x[2,2] = 1
 allocateEach[3]: x[1,3] + x[2,3] = 1
 allocateEach[4]: x[1,4] + x[2,4] = 1
 allocateEach[5]: x[1,5] + x[2,5] = 1
 allocateEach[6]: x[1,6] + x[2,6] = 1
 allocateEach[7]: x[1,7] + x[2,7] = 1
 allocateEach[8]: x[1,8] + x[2,8] = 1
 allocateEach[9]: x[1,9] + x[2,9] = 1
 allocateEach[10]: x[1,10] + x[2,10] = 1
 allocateEach[11]: x[1,11] + x[2,11] = 1
 allocateEach[12]: x[1,12] + x[2,12] = 1
 allocateEach[13]: x[1,13] + x[2,13] = 1
 allocateAllCash: cashProportion[1] + cashProportion[2] = 1
 findWorstP[1,2]: z + 0.0072716695753345 cashProportion[1]
   - 0.0072716695753345 cashProportion[2] + 0.0869837114601512 x[1,1]
   + 0.1380017452006981 x[1,2] + 0.0524723676556137 x[1,3]
   + 0.0635980221058755 x[1,4] + 0.0707533449680047 x[1,5]
   + 0.0610238510762071 x[1,6] + 0.137696335078534 x[1,7]
   + 0.0755235602094241 x[1,8] + 0.0923356602675974 x[1,9]
   + 0.0961751018033741 x[1,10] + 0.0433682373472949 x[1,11]
   + 0.0294066317626527 x[1,12] + 0.0453897614892379 x[1,13]
   - 0.0869837114601512 x[2,1] - 0.1380017452006981 x[2,2]
   - 0.0524723676556137 x[2,3] - 0.0635980221058755 x[2,4]
   - 0.0707533449680047 x[2,5] - 0.0610238510762071 x[2,6]
   - 0.137696335078534 x[2,7] - 0.0755235602094241 x[2,8]
   - 0.0923356602675974 x[2,9] - 0.0961751018033741 x[2,10]
   - 0.0433682373472949 x[2,11] - 0.0294066317626527 x[2,12]
   - 0.0453897614892379 x[2,13] >= 0
 findWorstP[2,1]: z - 0.00817567899014013 cashProportion[1]
   + 0.00817567899014013 cashProportion[2] - 0.14060532727243 x[1,1]
   - 0.0731396242457936 x[1,2] - 0.0844711153261278 x[1,3]
   - 0.0705234069689488 x[1,4] - 0.0580800235459555 x[1,5]
   - 0.00421865035891231 x[1,6] - 0.0445083964223229 x[1,7]
   - 0.1353238386447994 x[1,8] - 0.0493647497424661 x[1,9]
   - 0.1235018068250568 x[1,10] - 0.1240577529963864 x[1,11]
   - 0.0256062265971189 x[1,12] - 0.0584234020635414 x[1,13]
   + 0.14060532727243 x[2,1] + 0.0731396242457936 x[2,2]
   + 0.0844711153261278 x[2,3] + 0.0705234069689488 x[2,4]
   + 0.0580800235459555 x[2,5] + 0.00421865035891231 x[2,6]
   + 0.0445083964223229 x[2,7] + 0.1353238386447994 x[2,8]
   + 0.0493647497424661 x[2,9] + 0.1235018068250568 x[2,10]
   + 0.1240577529963864 x[2,11] + 0.0256062265971189 x[2,12]
   + 0.0584234020635414 x[2,13] >= 0
Bounds
 z <= 1
 -infinity <= cashProportion[1] <= 1
 -infinity <= cashProportion[2] <= 1
Binaries
 x[1,1] x[1,2] x[1,3] x[1,4] x[1,5] x[1,6] x[1,7] x[1,8] x[1,9] x[1,10]
 x[1,11] x[1,12] x[1,13] x[2,1] x[2,2] x[2,3] x[2,4] x[2,5] x[2,6] x[2,7]
 x[2,8] x[2,9] x[2,10] x[2,11] x[2,12] x[2,13]
End
