data/mps_files/q3/33_0.mps
NAME foo
ROWS
 N  OBJ
 E  allocateEach[1]
 E  allocateEach[2]
 E  allocateEach[3]
 E  allocateEach[4]
 E  allocateEach[5]
 E  allocateEach[6]
 E  allocateEach[7]
 E  allocateEach[8]
 E  allocateEach[9]
 E  allocateEach[10]
 E  allocateEach[11]
 E  allocateEach[12]
 E  allocateEach[13]
 E  allocateAllCash
 G  findWorstP[1,2]
 G  findWorstP[2,1]
COLUMNS
    z         OBJ       1
    z         findWorstP[1,2]  1
    z         findWorstP[2,1]  1
    cashProportion[1]  allocateAllCash  1
    cashProportion[1]  findWorstP[1,2]  7.2716695753344968e-03
    cashProportion[1]  findWorstP[2,1]  -8.1756789901401318e-03
    cashProportion[2]  allocateAllCash  1
    cashProportion[2]  findWorstP[1,2]  -7.2716695753344968e-03
    cashProportion[2]  findWorstP[2,1]  8.1756789901401318e-03
    MARKER    'MARKER'                 'INTORG'
    x[1,1]    allocateEach[1]  1
    x[1,1]    findWorstP[1,2]  8.6983711460151242e-02
    x[1,1]    findWorstP[2,1]  -1.4060532727242997e-01
    x[1,2]    allocateEach[2]  1
    x[1,2]    findWorstP[1,2]  1.3800174520069808e-01
    x[1,2]    findWorstP[2,1]  -7.3139624245793608e-02
    x[1,3]    allocateEach[3]  1
    x[1,3]    findWorstP[1,2]  5.2472367655613729e-02
    x[1,3]    findWorstP[2,1]  -8.4471115326127832e-02
    x[1,4]    allocateEach[4]  1
    x[1,4]    findWorstP[1,2]  0.0635980221058755
    x[1,4]    findWorstP[2,1]  -7.0523406968948779e-02
    x[1,5]    allocateEach[5]  1
    x[1,5]    findWorstP[1,2]  7.0753344968004658e-02
    x[1,5]    findWorstP[2,1]  -5.8080023545955491e-02
    x[1,6]    allocateEach[6]  1
    x[1,6]    findWorstP[1,2]  6.1023851076207093e-02
    x[1,6]    findWorstP[2,1]  -4.2186503589123079e-03
    x[1,7]    allocateEach[7]  1
    x[1,7]    findWorstP[1,2]  1.3769633507853402e-01
    x[1,7]    findWorstP[2,1]  -4.4508396422322877e-02
    x[1,8]    allocateEach[8]  1
    x[1,8]    findWorstP[1,2]  7.5523560209424079e-02
    x[1,8]    findWorstP[2,1]  -1.3532383864479944e-01
    x[1,9]    allocateEach[9]  1
    x[1,9]    findWorstP[1,2]  9.2335660267597444e-02
    x[1,9]    findWorstP[2,1]  -4.9364749742466109e-02
    x[1,10]   allocateEach[10]  1
    x[1,10]   findWorstP[1,2]  9.6175101803374061e-02
    x[1,10]   findWorstP[2,1]  -1.2350180682505682e-01
    x[1,11]   allocateEach[11]  1
    x[1,11]   findWorstP[1,2]  4.3368237347294940e-02
    x[1,11]   findWorstP[2,1]  -1.2405775299638636e-01
    x[1,12]   allocateEach[12]  1
    x[1,12]   findWorstP[1,2]  2.9406631762652704e-02
    x[1,12]   findWorstP[2,1]  -2.5606226597118888e-02
    x[1,13]   allocateEach[13]  1
    x[1,13]   findWorstP[1,2]  4.5389761489237929e-02
    x[1,13]   findWorstP[2,1]  -5.8423402063541380e-02
    x[2,1]    allocateEach[1]  1
    x[2,1]    findWorstP[1,2]  -8.6983711460151242e-02
    x[2,1]    findWorstP[2,1]  1.4060532727242997e-01
    x[2,2]    allocateEach[2]  1
    x[2,2]    findWorstP[1,2]  -1.3800174520069808e-01
    x[2,2]    findWorstP[2,1]  7.3139624245793608e-02
    x[2,3]    allocateEach[3]  1
    x[2,3]    findWorstP[1,2]  -5.2472367655613729e-02
    x[2,3]    findWorstP[2,1]  8.4471115326127832e-02
    x[2,4]    allocateEach[4]  1
    x[2,4]    findWorstP[1,2]  -0.0635980221058755
    x[2,4]    findWorstP[2,1]  7.0523406968948779e-02
    x[2,5]    allocateEach[5]  1
    x[2,5]    findWorstP[1,2]  -7.0753344968004658e-02
    x[2,5]    findWorstP[2,1]  5.8080023545955491e-02
    x[2,6]    allocateEach[6]  1
    x[2,6]    findWorstP[1,2]  -6.1023851076207093e-02
    x[2,6]    findWorstP[2,1]  4.2186503589123079e-03
    x[2,7]    allocateEach[7]  1
    x[2,7]    findWorstP[1,2]  -1.3769633507853402e-01
    x[2,7]    findWorstP[2,1]  4.4508396422322877e-02
    x[2,8]    allocateEach[8]  1
    x[2,8]    findWorstP[1,2]  -7.5523560209424079e-02
    x[2,8]    findWorstP[2,1]  1.3532383864479944e-01
    x[2,9]    allocateEach[9]  1
    x[2,9]    findWorstP[1,2]  -9.2335660267597444e-02
    x[2,9]    findWorstP[2,1]  4.9364749742466109e-02
    x[2,10]   allocateEach[10]  1
    x[2,10]   findWorstP[1,2]  -9.6175101803374061e-02
    x[2,10]   findWorstP[2,1]  1.2350180682505682e-01
    x[2,11]   allocateEach[11]  1
    x[2,11]   findWorstP[1,2]  -4.3368237347294940e-02
    x[2,11]   findWorstP[2,1]  1.2405775299638636e-01
    x[2,12]   allocateEach[12]  1
    x[2,12]   findWorstP[1,2]  -2.9406631762652704e-02
    x[2,12]   findWorstP[2,1]  2.5606226597118888e-02
    x[2,13]   allocateEach[13]  1
    x[2,13]   findWorstP[1,2]  -4.5389761489237929e-02
    x[2,13]   findWorstP[2,1]  5.8423402063541380e-02
    MARKER    'MARKER'                 'INTEND'
RHS
    RHS1      allocateEach[1]  1
    RHS1      allocateEach[2]  1
    RHS1      allocateEach[3]  1
    RHS1      allocateEach[4]  1
    RHS1      allocateEach[5]  1
    RHS1      allocateEach[6]  1
    RHS1      allocateEach[7]  1
    RHS1      allocateEach[8]  1
    RHS1      allocateEach[9]  1
    RHS1      allocateEach[10]  1
    RHS1      allocateEach[11]  1
    RHS1      allocateEach[12]  1
    RHS1      allocateEach[13]  1
    RHS1      allocateAllCash  1
BOUNDS
 UP BND1      z         1
 MI BND1      cashProportion[1]
 UP BND1      cashProportion[1]  1
 MI BND1      cashProportion[2]
 UP BND1      cashProportion[2]  1
 BV BND1      x[1,1]  
 BV BND1      x[1,2]  
 BV BND1      x[1,3]  
 BV BND1      x[1,4]  
 BV BND1      x[1,5]  
 BV BND1      x[1,6]  
 BV BND1      x[1,7]  
 BV BND1      x[1,8]  
 BV BND1      x[1,9]  
 BV BND1      x[1,10] 
 BV BND1      x[1,11] 
 BV BND1      x[1,12] 
 BV BND1      x[1,13] 
 BV BND1      x[2,1]  
 BV BND1      x[2,2]  
 BV BND1      x[2,3]  
 BV BND1      x[2,4]  
 BV BND1      x[2,5]  
 BV BND1      x[2,6]  
 BV BND1      x[2,7]  
 BV BND1      x[2,8]  
 BV BND1      x[2,9]  
 BV BND1      x[2,10] 
 BV BND1      x[2,11] 
 BV BND1      x[2,12] 
 BV BND1      x[2,13] 
ENDATA
